
(set-logic ALL) 

(declare-datatype MyList ((Nil) (Cons (head Real) (tail MyList)) )) 
(declare-fun l0 () MyList) 
(declare-fun l1 () MyList) 
(declare-fun l2 () MyList) 
(declare-fun l3 () MyList) 
(declare-fun i0 () Real) 
(declare-fun i1 () Real) 
(assert (is-Nil Nil) )
(assert (is-Cons l3) )
(assert (or (= l1 Nil) (= l3 Nil)) )
(assert (is-Cons l1) )
(assert (or (= l2 Nil) (is-Nil l0) (= l3 Nil)) )
(assert (or (= l1 Nil) (= l0 Nil)) )
(assert (not (= l2 Nil)) )
(assert (is-Nil l1) )
(check-sat)
